NAME : amtsp.-95159.tour
COMMENT : Length = -95159
COMMENT : Found by LKH [Keld Helsgaun] Wed Apr 30 11:03:36 2025
TYPE : TOUR
DIMENSION : 52
TOUR_SECTION
1
2
26
27
28
29
3
30
31
32
33
5
52
51
50
49
46
47
48
24
23
6
7
8
9
10
12
11
14
15
16
17
18
13
4
19
20
21
34
35
36
37
38
39
40
41
42
43
44
45
22
25
-1
EOF
